FCC Ni Bulk
 3.45
    0.0  0.5  0.5
    0.5  0.0  0.5
    0.5  0.5  0.0
 Ni
 1
direct
 0.0 0.0 0.0
