System = FCC Au
ENCUT = 230
EDIFF = 0.0001
RWIGS = 1.503
ICHARG = 11
LCHARG = .FALSE.
NEDOS = 3001
