FCC Au Bulk
 3.80
    0.0  0.5  0.5
    0.5  0.0  0.5
    0.5  0.5  0.0
 Au
 1
direct
 0.0 0.0 0.0
