Fe(001)-5layers
2.840
  1.00 0.00 0.00
  0.00 1.00 0.00
  0.00 0.00 50.0
 Fe
 3
Direct
 0.50000000 0.50000000 0.01000000
 0.00000000 0.00000000 0.00000000
 0.50000000 0.50000000 -.01000000
