Au bulk FCC                             
   4.30000000000000     
    -0.0000000000000000    0.4718083844005469    0.4718083844005469
     0.4718083844005469    0.0000000000000000    0.4718083844005469
     0.4718083844005469    0.4718083844005469    0.0000000000000000
   Au
     1
Direct
  0.0000000000000000  0.0000000000000000 -0.0000000000000000
 
  0.00000000E+00  0.00000000E+00  0.00000000E+00
