BCC W Bulk
 2.90
   -0.5  0.5  0.5
    0.5 -0.5  0.5
    0.5  0.5 -0.5
 W
 1
direct
 0.0 0.0 0.0
