Au bulk FCC
4.06379
  0.0 0.5 0.5
  0.5 0.0 0.5
  0.5 0.5 0.0
 Au
 1
Direct
 0.00000000 0.00000000 0.00000000
