K-pts along …… line FCC
20
Line-mode
cart
0.5 1.0 0.0 ! W
0.5 0.5 0.5 ! L
0.5 0.5 0.5 ! L
0.0 0.0 0.0 ! Gamma
0.0 0.0 0.0 ! Gamma
0.0 1.0 0.0 ! X
0.0 1.0 0.0 ! X
0.5 1.0 0.0 ! W
0.5 1.0 0.0 ! W
0.75 0.75 0.0 ! K
