System = BCC W
ENCUT = 224
EDIFF = 0.0001
RWIGS = 1.455 
ICHARG = 11
LCHARG = .FALSE.
NEDOS = 3001
