K-points along high symmetry lines for bcc
20
Line-mode
cart
0.0 0.0 0.0
0.0 1.0 0.0

0.0 1.0 0.0
0.5 0.5 0.0

0.5 0.5 0.0
0.5 0.5 0.5

0.5 0.5 0.5
0.0 0.0 0.0

0.0 0.0 0.0
0.5 0.5 0.0
