Au bulk FCC                             
   4.30000000000000     
    -0.0000000000000000    0.4717413393795625    0.4717413393795625
     0.4717413393795625    0.0000000000000000    0.4717413393795625
     0.4717413393795625    0.4717413393795625    0.0000000000000000
   Au
     1
Direct
  0.0000000000000000 -0.0000000000000000  0.0000000000000000
 
  0.00000000E+00  0.00000000E+00  0.00000000E+00
