Au bulk FCC
4.30000000
0.00000000 0.50000000 0.50000000
0.50000000 0.00000000 0.50000000
0.50000000 0.50000000 0.00000000
Au
1
Direct
0.00000000 0.00000000 0.00000000
