System = BCC Fe
ISPIN = 2
ENCUT = 268
MAGMOM = 3*3
EDIFFG = -0.01
LVHAR = .TRUE.
NSW = 50
IBRION = 2
RWIGS = 1.302
NPAR = 1
