Fe(001)-5layers                                                                 
 2.83999999999999986
     1.0000000000000000    0.0000000000000000    0.0000000000000000
     0.0000000000000000    1.0000000000000000    0.0000000000000000
     0.0000000000000000    0.0000000000000000    4.5211267605633809
 Fe                                                                             
   3
Direct                                                                          
  0.5000000000000000  0.5000000000000000  0.1105919003115265
  0.0000000000000000  0.0000000000000000  0.0000000000000000
  0.5000000000000000  0.5000000000000000 -0.1105919003115265
