System = bcc Fe
PREC = high
ISIF = 3
IBRION = 2
EDIFFG = 0.001
NSW = 50

EDIFF = 0.0001

ISPIN = 2
MAGMOM = 3
