CO-Spin                                 
   10.0000000000000     
     1.0000000000000000    0.0000000000000000    0.0000000000000000
     0.0000000000000000    1.0000000000000000    0.0000000000000000
     0.0000000000000000    0.0000000000000000    1.0000000000000000
   C    O 
     1     1
Direct
  0.0000000000000000  0.0000000000000000  0.5571120609991256
  0.0000000000000000  0.0000000000000000  0.4428879390008744
 
  0.00000000E+00  0.00000000E+00  0.00000000E+00
  0.00000000E+00  0.00000000E+00  0.00000000E+00
