Fe(001)-5layers                         
   2.84000000000000     
     1.0000000000000000    0.0000000000000000    0.0000000000000000
     0.0000000000000000    1.0000000000000000    0.0000000000000000
     0.0000000000000000    0.0000000000000000    5.5211267605633827
   Fe
     5
Direct
  0.0000000000000000  0.0000000000000000  0.1800240773042392
  0.5000000000000000  0.5000000000000000  0.0928336071759960
  0.0000000000000000  0.0000000000000000  0.0000000000000000
  0.5000000000000000  0.5000000000000000  0.9071663928240040
  0.0000000000000000  0.0000000000000000  0.8199759226957606
 
  0.00000000E+00  0.00000000E+00  0.00000000E+00
  0.00000000E+00  0.00000000E+00  0.00000000E+00
  0.00000000E+00  0.00000000E+00  0.00000000E+00
  0.00000000E+00  0.00000000E+00  0.00000000E+00
  0.00000000E+00  0.00000000E+00  0.00000000E+00
