Fe(001)-5layers                                                                 
 2.83999999999999986
     1.0000000000000000    0.0000000000000000    0.0000000000000000
     0.0000000000000000    1.0000000000000000    0.0000000000000000
     0.0000000000000000    0.0000000000000000    5.5211267605633827
 Fe                                                                             
   5
Direct                                                                          
  0.0000000000000000  0.0000000000000000  0.1811224489795918
  0.5000000000000000  0.5000000000000000  0.0905612244897959
  0.0000000000000000  0.0000000000000000  0.0000000000000000
  0.5000000000000000  0.5000000000000000 -0.0905612244897959
  0.0000000000000000  0.0000000000000000 -0.1811224489795918
