Au bulk FCC
4.06379
0.000000 0.500000 0.500000
0.500000 0.000000 0.500000
0.500000 0.500000 0.000000
Fe
1
Direct
0.00000000 0.00000000 0.00000000
