C-Spin
 10.000
   1.000000000 0.000000000 0.000000000
   0.000000000 1.000000000 0.000000000
   0.000000000 0.000000000 1.000000000
C 
 1 
Direct
   0.000000000 0.000000000 0.000000000
