Fe bulk bcc
2.82000
   -0.5  0.5  0.5
    0.5 -0.5  0.5
    0.5  0.5 -0.5
 1
Direct
 0.00000000 0.00000000 0.00000000
