W bulk bcc
3.12720
-0.50000000 0.50000000 0.50000000
0.50000000 -0.50000000 0.50000000
0.50000000 0.50000000 -0.50000000
W
1
Direct
0.00000000 0.00000000 0.00000000
