BCC Fe Bulk
 3.05
   -0.5  0.5  0.5
    0.5 -0.5  0.5
    0.5  0.5 -0.5
 Fe
 1
direct
 0.0 0.0 0.0
