System = fcc Au
ENCUT = 230
EDIFF = 0.0001
