W bulk bcc                              
   3.13000000000000     
    -0.4990946207081164    0.4990946207081164    0.4990946207081164
     0.4990946207081164   -0.4990946207081164    0.4990946207081164
     0.4990946207081164    0.4990946207081164   -0.4990946207081164
   W 
     1
Direct
  0.0000000000000000  0.0000000000000000  0.0000000000000000
 
  0.00000000E+00  0.00000000E+00  0.00000000E+00
