System = bcc W
PREC = high
#ENCUT = 300
EDIFF = 0.0001
ISIF = 3
IBRION = 2
EDIFFG = 0.001
NSW = 50
