Fe bulk bcc                             
   2.82000000000000     
    -0.5036732560405182    0.5036732560405182    0.5036732560405182
     0.5036732560405182   -0.5036732560405182    0.5036732560405182
     0.5036732560405182    0.5036732560405182   -0.5036732560405182
   Fe
     1
Direct
  0.0000000000000000  0.0000000000000000  0.0000000000000000
 
  0.00000000E+00  0.00000000E+00  0.00000000E+00
