System = fcc Ni
ENCUT = 270
EDIFF = 0.0001

ISPIN = 2
MAGMOM = 3
