Fe(001)-5layers
2.840
  1.00 0.00 0.00
  0.00 1.00 0.00
  0.00 0.00 50.0
 Fe
 1
Direct
 0.00000000 0.00000000 0.00000000
