Ni bulk FCC                             
   3.52000000000000     
    -0.0000000000000000    0.4993243609516362    0.4993243609516362
     0.4993243609516362    0.0000000000000000    0.4993243609516362
     0.4993243609516362    0.4993243609516362   -0.0000000000000000
   Ni
     1
Direct
 -0.0000000000000000 -0.0000000000000000 -0.0000000000000000
 
  0.00000000E+00  0.00000000E+00  0.00000000E+00
