System = fcc Ni
PREC = high
ISIF = 3
IBRION = 2
NSW = 50
EDIFF = 0.0001

ISPIN = 2
MAGMOM = 3
