Fe bulk bcc
2.8399800
-0.50000000 0.50000000 0.50000000
0.50000000 -0.50000000 0.50000000
0.50000000 0.50000000 -0.50000000
Fe
1
Direct
0.00000000 0.00000000 0.00000000
